c File: data_files/evolved_graphs/g0296.col
c
c Auto generated graph
c
p edge 100 993
e 1 7
e 1 14
e 1 19
e 1 25
e 1 26
e 1 29
e 1 42
e 1 45
e 1 54
e 1 57
e 1 58
e 1 63
e 1 69
e 1 72
e 1 77
e 1 86
e 1 87
e 1 88
e 1 89
e 1 90
e 1 91
e 2 7
e 2 12
e 2 13
e 2 18
e 2 19
e 2 26
e 2 27
e 2 34
e 2 45
e 2 49
e 2 51
e 2 53
e 2 54
e 2 56
e 2 69
e 2 71
e 2 73
e 2 74
e 2 75
e 2 76
e 2 81
e 2 88
e 2 89
e 2 90
e 2 91
e 2 94
e 2 95
e 2 96
e 2 98
e 3 5
e 3 6
e 3 9
e 3 20
e 3 21
e 3 24
e 3 25
e 3 30
e 3 40
e 3 43
e 3 51
e 3 55
e 3 57
e 3 59
e 3 65
e 3 68
e 3 78
e 3 81
e 3 84
e 3 88
e 3 89
e 3 90
e 3 91
e 3 98
e 3 100
e 4 5
e 4 7
e 4 8
e 4 10
e 4 11
e 4 23
e 4 25
e 4 28
e 4 34
e 4 37
e 4 44
e 4 52
e 4 53
e 4 58
e 4 74
e 4 79
e 4 82
e 4 86
e 4 88
e 4 89
e 4 91
e 4 96
e 5 14
e 5 22
e 5 25
e 5 29
e 5 31
e 5 32
e 5 35
e 5 38
e 5 40
e 5 42
e 5 53
e 5 55
e 5 58
e 5 60
e 5 62
e 5 73
e 5 75
e 5 77
e 5 80
e 5 86
e 6 8
e 6 11
e 6 14
e 6 24
e 6 33
e 6 36
e 6 37
e 6 40
e 6 44
e 6 55
e 6 65
e 6 67
e 6 78
e 6 80
e 6 85
e 6 86
e 7 8
e 7 9
e 7 24
e 7 28
e 7 34
e 7 41
e 7 79
e 7 93
e 7 97
e 8 14
e 8 15
e 8 20
e 8 23
e 8 27
e 8 28
e 8 31
e 8 33
e 8 39
e 8 42
e 8 45
e 8 50
e 8 62
e 8 64
e 8 66
e 8 69
e 8 71
e 8 73
e 8 74
e 8 82
e 8 84
e 8 85
e 8 98
e 8 99
e 9 13
e 9 32
e 9 33
e 9 37
e 9 45
e 9 46
e 9 57
e 9 61
e 9 65
e 9 87
e 10 11
e 10 13
e 10 19
e 10 21
e 10 23
e 10 25
e 10 28
e 10 33
e 10 34
e 10 35
e 10 41
e 10 46
e 10 62
e 10 66
e 10 71
e 10 73
e 10 81
e 10 86
e 10 95
e 10 96
e 10 97
e 10 99
e 11 20
e 11 23
e 11 24
e 11 29
e 11 37
e 11 40
e 11 45
e 11 46
e 11 62
e 11 65
e 11 66
e 11 67
e 11 71
e 11 86
e 11 96
e 11 97
e 11 100
e 12 17
e 12 18
e 12 20
e 12 28
e 12 29
e 12 34
e 12 36
e 12 38
e 12 53
e 12 59
e 12 66
e 12 68
e 12 96
e 12 98
e 12 99
e 12 100
e 13 26
e 13 27
e 13 37
e 13 42
e 13 48
e 13 58
e 13 65
e 13 66
e 13 68
e 13 69
e 13 70
e 13 81
e 13 98
e 13 99
e 13 100
e 14 16
e 14 18
e 14 19
e 14 34
e 14 38
e 14 51
e 14 59
e 14 67
e 14 69
e 14 75
e 14 79
e 14 85
e 14 89
e 14 98
e 14 100
e 15 17
e 15 18
e 15 20
e 15 21
e 15 24
e 15 25
e 15 26
e 15 27
e 15 36
e 15 54
e 15 57
e 15 60
e 15 61
e 15 63
e 15 67
e 15 68
e 15 78
e 15 86
e 15 87
e 16 17
e 16 20
e 16 21
e 16 44
e 16 50
e 16 64
e 16 77
e 16 80
e 16 83
e 16 85
e 16 86
e 16 98
e 16 100
e 17 18
e 17 19
e 17 20
e 17 22
e 17 33
e 17 34
e 17 49
e 17 71
e 17 84
e 17 85
e 18 20
e 18 28
e 18 34
e 18 35
e 18 39
e 18 47
e 18 52
e 18 57
e 18 60
e 18 61
e 18 72
e 18 73
e 18 77
e 18 78
e 18 83
e 18 85
e 19 20
e 19 25
e 19 26
e 19 27
e 19 41
e 19 50
e 19 54
e 19 58
e 19 59
e 19 67
e 19 70
e 19 72
e 19 81
e 19 82
e 19 84
e 20 22
e 20 25
e 20 29
e 20 35
e 20 41
e 20 57
e 20 59
e 20 62
e 20 66
e 20 74
e 20 75
e 20 83
e 20 100
e 21 23
e 21 25
e 21 31
e 21 37
e 21 40
e 21 49
e 21 63
e 21 73
e 21 86
e 22 24
e 22 41
e 22 50
e 22 51
e 22 58
e 22 59
e 22 61
e 22 79
e 22 83
e 22 84
e 22 98
e 22 100
e 23 27
e 23 33
e 23 46
e 23 50
e 23 51
e 23 54
e 23 62
e 23 63
e 23 67
e 23 75
e 23 76
e 23 80
e 23 83
e 23 87
e 23 89
e 24 25
e 24 27
e 24 32
e 24 34
e 24 51
e 24 53
e 24 60
e 24 65
e 24 73
e 24 76
e 24 80
e 24 82
e 24 83
e 24 84
e 25 36
e 25 40
e 25 41
e 25 59
e 25 61
e 25 66
e 25 75
e 25 80
e 25 84
e 25 100
e 26 36
e 26 39
e 26 40
e 26 52
e 26 53
e 26 64
e 26 67
e 26 70
e 26 82
e 26 99
e 27 35
e 27 41
e 27 42
e 27 45
e 27 53
e 27 54
e 27 61
e 27 62
e 27 83
e 27 86
e 28 30
e 28 34
e 28 38
e 28 42
e 28 43
e 28 46
e 28 51
e 28 52
e 28 56
e 28 59
e 28 60
e 28 76
e 28 86
e 28 98
e 29 30
e 29 37
e 29 38
e 29 39
e 29 41
e 29 45
e 29 50
e 29 61
e 29 65
e 29 69
e 29 76
e 29 80
e 29 83
e 30 32
e 30 33
e 30 39
e 30 49
e 30 53
e 30 54
e 30 55
e 30 60
e 30 62
e 30 67
e 30 70
e 30 75
e 30 76
e 30 80
e 30 98
e 31 32
e 31 38
e 31 39
e 31 43
e 31 59
e 31 62
e 31 66
e 31 68
e 31 71
e 31 77
e 31 78
e 31 80
e 31 82
e 31 99
e 31 100
e 32 51
e 32 53
e 32 54
e 32 55
e 32 58
e 32 61
e 32 64
e 32 65
e 32 68
e 32 72
e 32 73
e 32 75
e 32 81
e 32 83
e 32 84
e 33 39
e 33 43
e 33 46
e 33 48
e 33 50
e 33 55
e 33 62
e 33 80
e 33 82
e 34 41
e 34 50
e 34 63
e 34 65
e 34 68
e 34 74
e 35 45
e 35 55
e 35 56
e 35 71
e 35 81
e 35 82
e 35 85
e 35 86
e 35 98
e 36 37
e 36 41
e 36 42
e 36 43
e 36 51
e 36 61
e 36 73
e 36 76
e 36 82
e 37 43
e 37 46
e 37 53
e 37 70
e 37 79
e 37 81
e 37 82
e 37 86
e 37 98
e 38 48
e 38 55
e 38 60
e 38 61
e 38 67
e 38 78
e 38 83
e 38 87
e 38 95
e 38 99
e 39 44
e 39 46
e 39 48
e 39 50
e 39 52
e 39 62
e 39 63
e 39 65
e 39 72
e 39 75
e 39 81
e 39 92
e 39 93
e 39 94
e 39 95
e 39 96
e 39 97
e 39 98
e 40 48
e 40 53
e 40 56
e 40 58
e 40 64
e 40 66
e 40 67
e 40 72
e 40 76
e 40 92
e 40 93
e 40 94
e 40 95
e 40 96
e 40 97
e 40 98
e 40 99
e 41 51
e 41 54
e 41 70
e 41 79
e 41 86
e 41 92
e 41 93
e 41 94
e 41 95
e 41 96
e 41 97
e 41 98
e 42 65
e 42 67
e 42 76
e 42 92
e 42 93
e 42 94
e 42 95
e 42 97
e 43 45
e 43 46
e 43 50
e 43 54
e 43 55
e 43 57
e 43 59
e 43 70
e 43 71
e 43 76
e 43 78
e 43 81
e 43 98
e 44 48
e 44 50
e 44 55
e 44 69
e 44 77
e 44 80
e 44 81
e 44 83
e 44 84
e 44 86
e 44 100
e 45 50
e 45 65
e 45 69
e 45 75
e 45 79
e 45 80
e 45 99
e 46 55
e 46 57
e 46 73
e 46 80
e 46 82
e 46 85
e 46 87
e 46 98
e 46 99
e 47 50
e 47 65
e 47 67
e 47 73
e 47 74
e 47 86
e 47 98
e 48 54
e 48 55
e 48 61
e 48 62
e 48 67
e 48 69
e 48 73
e 48 83
e 49 50
e 49 53
e 49 57
e 49 65
e 49 71
e 49 73
e 49 99
e 49 100
e 50 51
e 50 52
e 50 55
e 50 58
e 50 73
e 50 82
e 50 84
e 50 85
e 50 86
e 51 54
e 51 60
e 51 74
e 51 83
e 52 60
e 52 63
e 52 73
e 52 74
e 52 79
e 52 98
e 53 55
e 53 66
e 53 67
e 53 71
e 53 73
e 53 77
e 53 84
e 53 99
e 54 58
e 54 59
e 54 61
e 54 72
e 54 74
e 54 80
e 54 83
e 54 85
e 54 86
e 54 88
e 54 89
e 54 98
e 54 99
e 55 66
e 55 69
e 55 70
e 55 75
e 55 81
e 55 86
e 55 88
e 55 89
e 55 92
e 55 93
e 55 94
e 55 95
e 55 96
e 55 97
e 55 98
e 55 99
e 56 63
e 56 73
e 56 75
e 56 76
e 56 81
e 56 88
e 56 89
e 56 92
e 56 93
e 56 94
e 56 95
e 56 96
e 56 97
e 56 98
e 56 99
e 57 62
e 57 68
e 57 72
e 57 79
e 57 84
e 57 87
e 57 88
e 57 89
e 57 92
e 57 93
e 57 94
e 57 95
e 57 96
e 57 97
e 57 98
e 57 100
e 58 59
e 58 78
e 58 88
e 58 89
e 59 61
e 59 62
e 59 68
e 59 76
e 59 88
e 59 89
e 59 99
e 59 100
e 60 75
e 60 76
e 60 85
e 60 89
e 60 100
e 61 62
e 61 66
e 61 89
e 61 99
e 61 100
e 62 76
e 62 77
e 62 81
e 62 84
e 62 86
e 62 89
e 62 98
e 62 100
e 63 65
e 63 66
e 63 71
e 63 73
e 63 81
e 63 83
e 63 86
e 63 89
e 63 99
e 64 65
e 64 66
e 64 72
e 64 85
e 64 89
e 64 98
e 64 99
e 65 72
e 65 80
e 65 82
e 65 99
e 66 76
e 66 79
e 66 80
e 66 85
e 66 86
e 66 87
e 66 99
e 67 68
e 67 76
e 67 79
e 67 89
e 67 90
e 67 91
e 67 92
e 67 93
e 67 94
e 67 100
e 68 70
e 68 84
e 68 85
e 68 89
e 68 90
e 68 91
e 68 92
e 68 93
e 68 94
e 68 95
e 68 96
e 69 70
e 69 83
e 69 85
e 69 89
e 69 90
e 69 91
e 69 92
e 69 93
e 69 94
e 69 95
e 69 96
e 69 97
e 69 99
e 70 83
e 70 90
e 70 91
e 70 92
e 70 93
e 70 94
e 70 95
e 70 96
e 70 97
e 70 100
e 71 72
e 71 73
e 71 85
e 71 86
e 71 87
e 71 89
e 71 90
e 71 91
e 71 92
e 71 93
e 71 94
e 71 95
e 71 96
e 71 97
e 72 74
e 72 76
e 72 85
e 72 86
e 72 89
e 72 90
e 72 91
e 72 92
e 72 93
e 72 94
e 72 95
e 72 96
e 72 97
e 72 98
e 73 79
e 73 84
e 73 86
e 73 87
e 73 89
e 73 90
e 73 91
e 73 92
e 73 93
e 73 94
e 73 95
e 73 96
e 73 97
e 74 79
e 74 81
e 74 82
e 74 83
e 74 86
e 74 89
e 74 90
e 74 91
e 74 92
e 74 93
e 74 94
e 74 95
e 74 96
e 74 97
e 75 76
e 75 89
e 75 90
e 75 91
e 75 92
e 75 93
e 75 94
e 75 95
e 75 96
e 75 99
e 76 78
e 76 80
e 76 82
e 76 84
e 76 89
e 76 90
e 76 91
e 76 92
e 76 93
e 76 94
e 76 95
e 76 96
e 76 97
e 76 98
e 77 79
e 77 83
e 77 85
e 77 89
e 77 90
e 77 91
e 77 92
e 77 93
e 77 94
e 77 95
e 77 96
e 77 97
e 77 99
e 78 81
e 78 84
e 78 89
e 78 90
e 78 91
e 78 98
e 78 99
e 79 81
e 79 89
e 79 90
e 79 91
e 79 100
e 80 83
e 80 87
e 80 89
e 80 90
e 80 91
e 81 83
e 81 89
e 81 99
e 82 100
e 83 95
e 83 98
e 84 85
e 84 99
e 84 100
e 85 98
e 85 99
e 86 87
e 86 99
e 86 100
e 87 98
e 88 89
e 90 95
e 90 100
e 91 94
e 92 96
e 92 98
e 93 100
e 94 95
e 94 96
e 95 100
e 96 100
e 98 100
